certificates/rado_a15_c166_N29.cnf
c Rad2 upper bound instance: x1 + 15*x2 - x3 = 166, interval [1,29]
p cnf 29 112
1 12 15 0
-1 -12 -15 0
1 2 11 0
-1 -2 -11 0
2 12 16 0
-2 -12 -16 0
2 3 11 0
-2 -3 -11 0
3 12 17 0
-3 -12 -17 0
3 4 11 0
-3 -4 -11 0
4 12 18 0
-4 -12 -18 0
4 5 11 0
-4 -5 -11 0
5 12 19 0
-5 -12 -19 0
5 6 11 0
-5 -6 -11 0
6 12 20 0
-6 -12 -20 0
6 7 11 0
-6 -7 -11 0
7 12 21 0
-7 -12 -21 0
7 8 11 0
-7 -8 -11 0
8 12 22 0
-8 -12 -22 0
8 9 11 0
-8 -9 -11 0
9 12 23 0
-9 -12 -23 0
9 10 11 0
-9 -10 -11 0
10 12 24 0
-10 -12 -24 0
10 11 0
-10 -11 0
11 12 25 0
-11 -12 -25 0
11 12 0
-11 -12 0
12 26 0
-12 -26 0
11 12 13 0
-11 -12 -13 0
12 13 27 0
-12 -13 -27 0
11 13 14 0
-11 -13 -14 0
12 14 28 0
-12 -14 -28 0
11 14 15 0
-11 -14 -15 0
12 15 29 0
-12 -15 -29 0
11 15 16 0
-11 -15 -16 0
1 10 17 0
-1 -10 -17 0
11 16 17 0
-11 -16 -17 0
2 10 18 0
-2 -10 -18 0
11 17 18 0
-11 -17 -18 0
3 10 19 0
-3 -10 -19 0
11 18 19 0
-11 -18 -19 0
4 10 20 0
-4 -10 -20 0
11 19 20 0
-11 -19 -20 0
5 10 21 0
-5 -10 -21 0
11 20 21 0
-11 -20 -21 0
6 10 22 0
-6 -10 -22 0
11 21 22 0
-11 -21 -22 0
7 10 23 0
-7 -10 -23 0
11 22 23 0
-11 -22 -23 0
8 10 24 0
-8 -10 -24 0
11 23 24 0
-11 -23 -24 0
9 10 25 0
-9 -10 -25 0
11 24 25 0
-11 -24 -25 0
10 26 0
-10 -26 0
11 25 26 0
-11 -25 -26 0
10 11 27 0
-10 -11 -27 0
11 26 27 0
-11 -26 -27 0
10 12 28 0
-10 -12 -28 0
11 27 28 0
-11 -27 -28 0
10 13 29 0
-10 -13 -29 0
11 28 29 0
-11 -28 -29 0
