certificates/rado_a15_c166_N29.drat
-28 -29 0
d -28 -11 -29 0
-12 -29 0
-29 0
12 0
-11 0
-26 0
10 0
28 0
27 0
25 0
0
